NAME          COPTPROB
OBJSENSE
  MIN
ROWS
 N  __OBJ___
 L  C86     
 L  C132    
 L  C191    
COLUMNS
    MARKER    'MARKER'                 'INTORG'
    x649      __OBJ___  11
    x649      C86       -1
    x649      C132      -1
    x1790     __OBJ___  7
    x1790     C86       -1
    x1790     C191      -1
    x2065     __OBJ___  11
    x2065     C132      -1
    x2065     C191      -1
    x5304     __OBJ___  5
    x5304     C86       -1
    MARKER    'MARKER'                 'INTEND'
RHS
    RHS       __OBJ___  -2118
    RHS       C86       -1
    RHS       C132      -1
    RHS       C191      -1
BOUNDS
 UP BOUND     x649      1
 UP BOUND     x1790     1
 UP BOUND     x2065     1
 UP BOUND     x5304     1
ENDATA
